NAME : cp-n33-kk
COMMENT : Claudio Procida, 6 vehicles
TYPE : CVRP
DIMENSION : 33
EDGE_WEIGHT_TYPE : EUC_2D
CAPACITY : 54
NODE_COORD_SECTION
 1  68 115
 2  73  16
 3  24   3
 4  56  84
 5  76  13
 6  82   5
 7  42  45
 8   7  33
 9   4  11
10  91  17
11 122  13
12  46  94
13  26  17
14   2 114
15  15  26
16  11   3
17  72  81
18   1   9
19  23   5
20  18  77
21   0  26
22  62  23
23  57   0
24  23  17
25  15  84
26  85 110
27  74  39
28  75  99
29  84  72
30  82  99
31  90 110
32  72  94
33 121  87
DEMAND_SECTION
 1   0
 2   6
 3  20
 4  16
 5  22
 6   8
 7  11
 8   8
 9   2
10  20
11  22
12   7
13  13
14  21
15  15
16  12
17   6
18  18
19   8
20  21
21  16
22   5
23  19
24   6
25   4
26  19
27  17
28  13
29  20
30  17
31   9
32  48
33  12
DEPOT_SECTION
 1
-1
EOF
